notes/week6-examples/Optimization-Codes/AMPL code/IMM-9-FS2014-group-of-bridges-work-programme.txt
for {1..1} {
solve;
display x, y;
}

for {i in 1..3}
	if x[i] > 0 let y[i]=1;
	else {let y[i]=0
	}
	
for {1..1} {
solve;
display x, y;
}
	

	
